[2026-03-23T13:36:48.537Z] Pipeline "set_exp_2_exp_2_n023_c003_g004" → 2026_03_23_13_36_48_set_exp_2_exp_2_n023_c003_g004_max.sol
Set parameter WLSAccessID
Set parameter WLSSecret
Set parameter LicenseID to value 2792458
Set parameter LogFile to value "gurobi.log"
Using license file /root/gurobi.lic
Academic license 2792458 - for non-commercial use only - registered to an___@studenti.unipg.it

Gurobi Optimizer version 13.0.1 build v13.0.1rc0 (linux64 - "Ubuntu 24.04.4 LTS")
Copyright (c) 2026, Gurobi Optimization, LLC

Warning: Duplicate section found (read 'binary') - Is a variable name equal to an LP file format keyword?
Warning: Duplicate section found (read 'binary') - Is a variable name equal to an LP file format keyword?
Warning: Duplicate section found (read 'binary') - Is a variable name equal to an LP file format keyword?
Warning: Duplicate section found (read 'binary') - Is a variable name equal to an LP file format keyword?
Warning: Duplicate section found (read 'binary') - Is a variable name equal to an LP file format keyword?
Warning: Duplicate section found (read 'binary') - Is a variable name equal to an LP file format keyword?
Warning: Duplicate section found (read 'binary') - Is a variable name equal to an LP file format keyword?
Warning: Duplicate section found (read 'binary') - Is a variable name equal to an LP file format keyword?
Warning: Duplicate section found (read 'binary') - Is a variable name equal to an LP file format keyword?
Warning: Duplicate section found (read 'binary') - Is a variable name equal to an LP file format keyword?
Warning: Further warnings of this type will be omitted.
Read LP format model from file /root/bgw/data/uploads/2026_03_23_13_36_48_set_exp_2_exp_2_n023_c003_g004_max.lp
Reading time = 0.00 seconds
: 4108 rows, 389 columns, 12258 nonzeros

Using Gurobi shared library /opt/gurobi1301/linux64/lib/libgurobi.so.13.0.1

CPU model: AMD EPYC-Genoa Processor, instruction set [SSE2|AVX|AVX2|AVX512]
Thread count: 16 physical cores, 16 logical processors, using up to 16 threads

Academic license 2792458 - for non-commercial use only - registered to an___@studenti.unipg.it
Optimize a model with 4108 rows, 389 columns and 12258 nonzeros (Max)
Model fingerprint: 0x01454cfa
Model has 7 linear objective coefficients
Variable types: 30 continuous, 359 integer (359 binary)
Coefficient statistics:
  Matrix range     [1e+00, 2e+01]
  Objective range  [1e+00, 1e+00]
  Bounds range     [1e+00, 1e+00]
  RHS range        [1e+00, 3e+01]

Found heuristic solution: objective 7.0000000
Presolve removed 536 rows and 117 columns
Presolve time: 0.01s
Presolved: 3572 rows, 272 columns, 10876 nonzeros
Variable types: 0 continuous, 272 integer (264 binary)
Found heuristic solution: objective 10.0000000

Root relaxation: objective 3.100000e+01, 124 iterations, 0.01 seconds (0.01 work units)

    Nodes    |    Current Node    |     Objective Bounds      |     Work
 Expl Unexpl |  Obj  Depth IntInf | Incumbent    BestBd   Gap | It/Node Time

     0     0   31.00000    0   17   10.00000   31.00000   210%     -    0s
H    0     0                      18.0000000   31.00000  72.2%     -    0s
H    0     0                      19.0000000   31.00000  63.2%     -    0s
H    0     0                      20.0000000   31.00000  55.0%     -    0s
     0     0   31.00000    0   23   20.00000   31.00000  55.0%     -    0s
     0     0   31.00000    0   22   20.00000   31.00000  55.0%     -    0s
     0     0   31.00000    0   22   20.00000   31.00000  55.0%     -    0s
     0     0   31.00000    0   17   20.00000   31.00000  55.0%     -    0s
     0     0   30.00000    0   18   20.00000   30.00000  50.0%     -    0s
     0     0   30.00000    0   18   20.00000   30.00000  50.0%     -    0s
     0     0   28.00000    0   19   20.00000   28.00000  40.0%     -    0s
     0     0   28.00000    0   19   20.00000   28.00000  40.0%     -    0s
     0     0   28.00000    0   20   20.00000   28.00000  40.0%     -    0s
     0     0   28.00000    0   17   20.00000   28.00000  40.0%     -    0s
     0     0   28.00000    0   19   20.00000   28.00000  40.0%     -    0s
     0     0   28.00000    0   20   20.00000   28.00000  40.0%     -    0s
     0     0   28.00000    0   17   20.00000   28.00000  40.0%     -    0s
     0     0   28.00000    0   17   20.00000   28.00000  40.0%     -    0s
     0     0   28.00000    0   17   20.00000   28.00000  40.0%     -    0s
     0     2   28.00000    0   17   20.00000   28.00000  40.0%     -    0s

Cutting planes:
  Gomory: 1
  Cover: 3
  MIR: 9
  Inf proof: 3
  Zero half: 4

Explored 277 nodes (13764 simplex iterations) in 0.36 seconds (0.39 work units)
Thread count was 16 (of 16 available processors)

Solution count 5: 20 19 18 ... 7

Optimal solution found (tolerance 1.00e-04)
Best objective 2.000000000000e+01, best bound 2.000000000000e+01, gap 0.0000%

Wrote result file '/root/bgw/data/results/2026_03_23_13_36_48_set_exp_2_exp_2_n023_c003_g004_max.sol'

